135
Lattice="20.267190462828673 0.0 0.0 0.0 20.267190462828673 0.0 0.0 0.0 20.267190462828673" Properties=species:S:1:pos:R:3 pbc="F F F"
Al       5.00000000       6.71119841       8.42239682
Al       5.00000000       8.42239682       6.71119841
Al       5.00000000       6.71119841      11.84479364
Al       5.00000000       8.42239682      10.13359523
Al       5.00000000       8.42239682      13.55599205
Al       5.00000000      10.13359523       8.42239682
Al       5.00000000      11.84479364       6.71119841
Al       5.00000000      10.13359523      11.84479364
Al       5.00000000      11.84479364      10.13359523
Al       5.00000000      11.84479364      13.55599205
Al       5.00000000      13.55599205       8.42239682
Al       5.00000000      13.55599205      11.84479364
Al       6.71119841       5.00000000       8.42239682
Al       8.42239682       5.00000000       6.71119841
Al       6.71119841       5.00000000      11.84479364
Al       8.42239682       5.00000000      10.13359523
Al       8.42239682       5.00000000      13.55599205
Al       6.71119841       8.42239682       5.00000000
Al       8.42239682       6.71119841       5.00000000
Al       6.71119841       6.71119841       6.71119841
Al       6.71119841       8.42239682       8.42239682
Al       8.42239682       6.71119841       8.42239682
Al       8.42239682       8.42239682       6.71119841
Al       6.71119841       6.71119841      10.13359523
Al       6.71119841       8.42239682      11.84479364
Al       8.42239682       6.71119841      11.84479364
Al       8.42239682       8.42239682      10.13359523
Al       6.71119841       6.71119841      13.55599205
Al       6.71119841       8.42239682      15.26719046
Al       8.42239682       6.71119841      15.26719046
Al       8.42239682       8.42239682      13.55599205
Al       6.71119841      11.84479364       5.00000000
Al       8.42239682      10.13359523       5.00000000
Al       6.71119841      10.13359523       6.71119841
Al       6.71119841      11.84479364       8.42239682
Al       8.42239682      10.13359523       8.42239682
Al       8.42239682      11.84479364       6.71119841
Al       6.71119841      10.13359523      10.13359523
Al       6.71119841      11.84479364      11.84479364
Al       8.42239682      10.13359523      11.84479364
Al       8.42239682      11.84479364      10.13359523
Al       6.71119841      10.13359523      13.55599205
Al       6.71119841      11.84479364      15.26719046
Al       8.42239682      10.13359523      15.26719046
Al       8.42239682      11.84479364      13.55599205
Al       8.42239682      13.55599205       5.00000000
Al       6.71119841      13.55599205       6.71119841
Al       6.71119841      15.26719046       8.42239682
Al       8.42239682      13.55599205       8.42239682
Al       8.42239682      15.26719046       6.71119841
Al       6.71119841      13.55599205      10.13359523
Al       6.71119841      15.26719046      11.84479364
Al       8.42239682      13.55599205      11.84479364
Al       8.42239682      15.26719046      10.13359523
Al       6.71119841      13.55599205      13.55599205
Al       8.42239682      13.55599205      15.26719046
Al       8.42239682      15.26719046      13.55599205
Al      10.13359523       5.00000000       8.42239682
Al      11.84479364       5.00000000       6.71119841
Al      10.13359523       5.00000000      11.84479364
Al      11.84479364       5.00000000      10.13359523
Al      11.84479364       5.00000000      13.55599205
Al      10.13359523       8.42239682       5.00000000
Al      11.84479364       6.71119841       5.00000000
Al      10.13359523       6.71119841       6.71119841
Al      10.13359523       8.42239682       8.42239682
Al      11.84479364       6.71119841       8.42239682
Al      11.84479364       8.42239682       6.71119841
Al      10.13359523       6.71119841      10.13359523
Al      10.13359523       8.42239682      11.84479364
Al      11.84479364       6.71119841      11.84479364
Al      11.84479364       8.42239682      10.13359523
Al      10.13359523       6.71119841      13.55599205
Al      10.13359523       8.42239682      15.26719046
Al      11.84479364       6.71119841      15.26719046
Al      11.84479364       8.42239682      13.55599205
Al      10.13359523      11.84479364       5.00000000
Al      11.84479364      10.13359523       5.00000000
Al      10.13359523      10.13359523       6.71119841
Al      10.13359523      11.84479364       8.42239682
Al      11.84479364      10.13359523       8.42239682
Al      11.84479364      11.84479364       6.71119841
Al      10.13359523      10.13359523      10.13359523
Al      10.13359523      11.84479364      11.84479364
Al      11.84479364      10.13359523      11.84479364
Al      11.84479364      11.84479364      10.13359523
Al      10.13359523      10.13359523      13.55599205
Al      10.13359523      11.84479364      15.26719046
Al      11.84479364      10.13359523      15.26719046
Al      11.84479364      11.84479364      13.55599205
Al      11.84479364      13.55599205       5.00000000
Al      10.13359523      13.55599205       6.71119841
Al      10.13359523      15.26719046       8.42239682
Al      11.84479364      13.55599205       8.42239682
Al      11.84479364      15.26719046       6.71119841
Al      10.13359523      13.55599205      10.13359523
Al      10.13359523      15.26719046      11.84479364
Al      11.84479364      13.55599205      11.84479364
Al      11.84479364      15.26719046      10.13359523
Al      10.13359523      13.55599205      13.55599205
Al      11.84479364      13.55599205      15.26719046
Al      11.84479364      15.26719046      13.55599205
Al      13.55599205       5.00000000       8.42239682
Al      13.55599205       5.00000000      11.84479364
Al      13.55599205       8.42239682       5.00000000
Al      13.55599205       6.71119841       6.71119841
Al      13.55599205       8.42239682       8.42239682
Al      15.26719046       6.71119841       8.42239682
Al      15.26719046       8.42239682       6.71119841
Al      13.55599205       6.71119841      10.13359523
Al      13.55599205       8.42239682      11.84479364
Al      15.26719046       6.71119841      11.84479364
Al      15.26719046       8.42239682      10.13359523
Al      13.55599205       6.71119841      13.55599205
Al      13.55599205       8.42239682      15.26719046
Al      15.26719046       8.42239682      13.55599205
Al      13.55599205      11.84479364       5.00000000
Al      13.55599205      10.13359523       6.71119841
Al      13.55599205      11.84479364       8.42239682
Al      15.26719046      10.13359523       8.42239682
Al      15.26719046      11.84479364       6.71119841
Al      13.55599205      10.13359523      10.13359523
Al      13.55599205      11.84479364      11.84479364
Al      15.26719046      10.13359523      11.84479364
Al      15.26719046      11.84479364      10.13359523
Al      13.55599205      10.13359523      13.55599205
Al      13.55599205      11.84479364      15.26719046
Al      15.26719046      11.84479364      13.55599205
Al      13.55599205      13.55599205       6.71119841
Al      13.55599205      15.26719046       8.42239682
Al      15.26719046      13.55599205       8.42239682
Al      13.55599205      13.55599205      10.13359523
Al      13.55599205      15.26719046      11.84479364
Al      15.26719046      13.55599205      11.84479364
Al      13.55599205      13.55599205      13.55599205
