87
Lattice="21.539982668964456 0.0 0.0 0.0 21.539982668964456 0.0 0.0 0.0 21.539982668964456" Properties=species:S:1:pos:R:3 pbc="F F F"
Au       5.00000000       8.84666089      10.76999133
Au       5.00000000      10.76999133       8.84666089
Au       5.00000000      10.76999133      12.69332178
Au       5.00000000      12.69332178      10.76999133
Au       8.84666089       5.00000000      10.76999133
Au       6.92333044       6.92333044       6.92333044
Au       6.92333044       8.84666089       8.84666089
Au       8.84666089       6.92333044       8.84666089
Au       8.84666089       8.84666089       6.92333044
Au       6.92333044       6.92333044      10.76999133
Au       6.92333044       8.84666089      12.69332178
Au       8.84666089       6.92333044      12.69332178
Au       8.84666089       8.84666089      10.76999133
Au       6.92333044       6.92333044      14.61665222
Au       8.84666089       8.84666089      14.61665222
Au       8.84666089      10.76999133       5.00000000
Au       6.92333044      10.76999133       6.92333044
Au       6.92333044      12.69332178       8.84666089
Au       8.84666089      10.76999133       8.84666089
Au       8.84666089      12.69332178       6.92333044
Au       6.92333044      10.76999133      10.76999133
Au       6.92333044      12.69332178      12.69332178
Au       8.84666089      10.76999133      12.69332178
Au       8.84666089      12.69332178      10.76999133
Au       6.92333044      10.76999133      14.61665222
Au       8.84666089      10.76999133      16.53998267
Au       8.84666089      12.69332178      14.61665222
Au       6.92333044      14.61665222       6.92333044
Au       8.84666089      14.61665222       8.84666089
Au       6.92333044      14.61665222      10.76999133
Au       8.84666089      14.61665222      12.69332178
Au       8.84666089      16.53998267      10.76999133
Au       6.92333044      14.61665222      14.61665222
Au      10.76999133       5.00000000       8.84666089
Au      10.76999133       5.00000000      12.69332178
Au      12.69332178       5.00000000      10.76999133
Au      10.76999133       8.84666089       5.00000000
Au      10.76999133       6.92333044       6.92333044
Au      10.76999133       8.84666089       8.84666089
Au      12.69332178       6.92333044       8.84666089
Au      12.69332178       8.84666089       6.92333044
Au      10.76999133       6.92333044      10.76999133
Au      10.76999133       8.84666089      12.69332178
Au      12.69332178       6.92333044      12.69332178
Au      12.69332178       8.84666089      10.76999133
Au      10.76999133       6.92333044      14.61665222
Au      10.76999133       8.84666089      16.53998267
Au      12.69332178       8.84666089      14.61665222
Au      10.76999133      12.69332178       5.00000000
Au      12.69332178      10.76999133       5.00000000
Au      10.76999133      10.76999133       6.92333044
Au      10.76999133      12.69332178       8.84666089
Au      12.69332178      10.76999133       8.84666089
Au      12.69332178      12.69332178       6.92333044
Au      10.76999133      10.76999133      10.76999133
Au      10.76999133      12.69332178      12.69332178
Au      12.69332178      10.76999133      12.69332178
Au      12.69332178      12.69332178      10.76999133
Au      10.76999133      10.76999133      14.61665222
Au      10.76999133      12.69332178      16.53998267
Au      12.69332178      10.76999133      16.53998267
Au      12.69332178      12.69332178      14.61665222
Au      10.76999133      14.61665222       6.92333044
Au      10.76999133      16.53998267       8.84666089
Au      12.69332178      14.61665222       8.84666089
Au      10.76999133      14.61665222      10.76999133
Au      10.76999133      16.53998267      12.69332178
Au      12.69332178      14.61665222      12.69332178
Au      12.69332178      16.53998267      10.76999133
Au      10.76999133      14.61665222      14.61665222
Au      14.61665222       6.92333044       6.92333044
Au      14.61665222       8.84666089       8.84666089
Au      14.61665222       6.92333044      10.76999133
Au      14.61665222       8.84666089      12.69332178
Au      16.53998267       8.84666089      10.76999133
Au      14.61665222       6.92333044      14.61665222
Au      14.61665222      10.76999133       6.92333044
Au      14.61665222      12.69332178       8.84666089
Au      16.53998267      10.76999133       8.84666089
Au      14.61665222      10.76999133      10.76999133
Au      14.61665222      12.69332178      12.69332178
Au      16.53998267      10.76999133      12.69332178
Au      16.53998267      12.69332178      10.76999133
Au      14.61665222      10.76999133      14.61665222
Au      14.61665222      14.61665222       6.92333044
Au      14.61665222      14.61665222      10.76999133
Au      14.61665222      14.61665222      14.61665222
