87
Lattice="21.200571413994915 0.0 0.0 0.0 21.200571413994915 0.0 0.0 0.0 21.200571413994915" Properties=species:S:1:pos:R:3 pbc="F F F"
Cu       5.00000000       8.73352380      10.60028571
Cu       5.00000000      10.60028571       8.73352380
Cu       5.00000000      10.60028571      12.46704761
Cu       5.00000000      12.46704761      10.60028571
Cu       8.73352380       5.00000000      10.60028571
Cu       6.86676190       6.86676190       6.86676190
Cu       6.86676190       8.73352380       8.73352380
Cu       8.73352380       6.86676190       8.73352380
Cu       8.73352380       8.73352380       6.86676190
Cu       6.86676190       6.86676190      10.60028571
Cu       6.86676190       8.73352380      12.46704761
Cu       8.73352380       6.86676190      12.46704761
Cu       8.73352380       8.73352380      10.60028571
Cu       6.86676190       6.86676190      14.33380951
Cu       8.73352380       8.73352380      14.33380951
Cu       8.73352380      10.60028571       5.00000000
Cu       6.86676190      10.60028571       6.86676190
Cu       6.86676190      12.46704761       8.73352380
Cu       8.73352380      10.60028571       8.73352380
Cu       8.73352380      12.46704761       6.86676190
Cu       6.86676190      10.60028571      10.60028571
Cu       6.86676190      12.46704761      12.46704761
Cu       8.73352380      10.60028571      12.46704761
Cu       8.73352380      12.46704761      10.60028571
Cu       6.86676190      10.60028571      14.33380951
Cu       8.73352380      10.60028571      16.20057141
Cu       8.73352380      12.46704761      14.33380951
Cu       6.86676190      14.33380951       6.86676190
Cu       8.73352380      14.33380951       8.73352380
Cu       6.86676190      14.33380951      10.60028571
Cu       8.73352380      14.33380951      12.46704761
Cu       8.73352380      16.20057141      10.60028571
Cu       6.86676190      14.33380951      14.33380951
Cu      10.60028571       5.00000000       8.73352380
Cu      10.60028571       5.00000000      12.46704761
Cu      12.46704761       5.00000000      10.60028571
Cu      10.60028571       8.73352380       5.00000000
Cu      10.60028571       6.86676190       6.86676190
Cu      10.60028571       8.73352380       8.73352380
Cu      12.46704761       6.86676190       8.73352380
Cu      12.46704761       8.73352380       6.86676190
Cu      10.60028571       6.86676190      10.60028571
Cu      10.60028571       8.73352380      12.46704761
Cu      12.46704761       6.86676190      12.46704761
Cu      12.46704761       8.73352380      10.60028571
Cu      10.60028571       6.86676190      14.33380951
Cu      10.60028571       8.73352380      16.20057141
Cu      12.46704761       8.73352380      14.33380951
Cu      10.60028571      12.46704761       5.00000000
Cu      12.46704761      10.60028571       5.00000000
Cu      10.60028571      10.60028571       6.86676190
Cu      10.60028571      12.46704761       8.73352380
Cu      12.46704761      10.60028571       8.73352380
Cu      12.46704761      12.46704761       6.86676190
Cu      10.60028571      10.60028571      10.60028571
Cu      10.60028571      12.46704761      12.46704761
Cu      12.46704761      10.60028571      12.46704761
Cu      12.46704761      12.46704761      10.60028571
Cu      10.60028571      10.60028571      14.33380951
Cu      10.60028571      12.46704761      16.20057141
Cu      12.46704761      10.60028571      16.20057141
Cu      12.46704761      12.46704761      14.33380951
Cu      10.60028571      14.33380951       6.86676190
Cu      10.60028571      16.20057141       8.73352380
Cu      12.46704761      14.33380951       8.73352380
Cu      10.60028571      14.33380951      10.60028571
Cu      10.60028571      16.20057141      12.46704761
Cu      12.46704761      14.33380951      12.46704761
Cu      12.46704761      16.20057141      10.60028571
Cu      10.60028571      14.33380951      14.33380951
Cu      14.33380951       6.86676190       6.86676190
Cu      14.33380951       8.73352380       8.73352380
Cu      14.33380951       6.86676190      10.60028571
Cu      14.33380951       8.73352380      12.46704761
Cu      16.20057141       8.73352380      10.60028571
Cu      14.33380951       6.86676190      14.33380951
Cu      14.33380951      10.60028571       6.86676190
Cu      14.33380951      12.46704761       8.73352380
Cu      16.20057141      10.60028571       8.73352380
Cu      14.33380951      10.60028571      10.60028571
Cu      14.33380951      12.46704761      12.46704761
Cu      16.20057141      10.60028571      12.46704761
Cu      16.20057141      12.46704761      10.60028571
Cu      14.33380951      10.60028571      14.33380951
Cu      14.33380951      14.33380951       6.86676190
Cu      14.33380951      14.33380951      10.60028571
Cu      14.33380951      14.33380951      14.33380951
