87
Lattice="20.521748904055826 0.0 0.0 0.0 20.521748904055826 0.0 0.0 0.0 20.521748904055826" Properties=species:S:1:pos:R:3 pbc="F F F"
Ni       5.00000000       8.50724963      10.26087445
Ni       5.00000000      10.26087445       8.50724963
Ni       5.00000000      10.26087445      12.01449927
Ni       5.00000000      12.01449927      10.26087445
Ni       8.50724963       5.00000000      10.26087445
Ni       6.75362482       6.75362482       6.75362482
Ni       6.75362482       8.50724963       8.50724963
Ni       8.50724963       6.75362482       8.50724963
Ni       8.50724963       8.50724963       6.75362482
Ni       6.75362482       6.75362482      10.26087445
Ni       6.75362482       8.50724963      12.01449927
Ni       8.50724963       6.75362482      12.01449927
Ni       8.50724963       8.50724963      10.26087445
Ni       6.75362482       6.75362482      13.76812409
Ni       8.50724963       8.50724963      13.76812409
Ni       8.50724963      10.26087445       5.00000000
Ni       6.75362482      10.26087445       6.75362482
Ni       6.75362482      12.01449927       8.50724963
Ni       8.50724963      10.26087445       8.50724963
Ni       8.50724963      12.01449927       6.75362482
Ni       6.75362482      10.26087445      10.26087445
Ni       6.75362482      12.01449927      12.01449927
Ni       8.50724963      10.26087445      12.01449927
Ni       8.50724963      12.01449927      10.26087445
Ni       6.75362482      10.26087445      13.76812409
Ni       8.50724963      10.26087445      15.52174890
Ni       8.50724963      12.01449927      13.76812409
Ni       6.75362482      13.76812409       6.75362482
Ni       8.50724963      13.76812409       8.50724963
Ni       6.75362482      13.76812409      10.26087445
Ni       8.50724963      13.76812409      12.01449927
Ni       8.50724963      15.52174890      10.26087445
Ni       6.75362482      13.76812409      13.76812409
Ni      10.26087445       5.00000000       8.50724963
Ni      10.26087445       5.00000000      12.01449927
Ni      12.01449927       5.00000000      10.26087445
Ni      10.26087445       8.50724963       5.00000000
Ni      10.26087445       6.75362482       6.75362482
Ni      10.26087445       8.50724963       8.50724963
Ni      12.01449927       6.75362482       8.50724963
Ni      12.01449927       8.50724963       6.75362482
Ni      10.26087445       6.75362482      10.26087445
Ni      10.26087445       8.50724963      12.01449927
Ni      12.01449927       6.75362482      12.01449927
Ni      12.01449927       8.50724963      10.26087445
Ni      10.26087445       6.75362482      13.76812409
Ni      10.26087445       8.50724963      15.52174890
Ni      12.01449927       8.50724963      13.76812409
Ni      10.26087445      12.01449927       5.00000000
Ni      12.01449927      10.26087445       5.00000000
Ni      10.26087445      10.26087445       6.75362482
Ni      10.26087445      12.01449927       8.50724963
Ni      12.01449927      10.26087445       8.50724963
Ni      12.01449927      12.01449927       6.75362482
Ni      10.26087445      10.26087445      10.26087445
Ni      10.26087445      12.01449927      12.01449927
Ni      12.01449927      10.26087445      12.01449927
Ni      12.01449927      12.01449927      10.26087445
Ni      10.26087445      10.26087445      13.76812409
Ni      10.26087445      12.01449927      15.52174890
Ni      12.01449927      10.26087445      15.52174890
Ni      12.01449927      12.01449927      13.76812409
Ni      10.26087445      13.76812409       6.75362482
Ni      10.26087445      15.52174890       8.50724963
Ni      12.01449927      13.76812409       8.50724963
Ni      10.26087445      13.76812409      10.26087445
Ni      10.26087445      15.52174890      12.01449927
Ni      12.01449927      13.76812409      12.01449927
Ni      12.01449927      15.52174890      10.26087445
Ni      10.26087445      13.76812409      13.76812409
Ni      13.76812409       6.75362482       6.75362482
Ni      13.76812409       8.50724963       8.50724963
Ni      13.76812409       6.75362482      10.26087445
Ni      13.76812409       8.50724963      12.01449927
Ni      15.52174890       8.50724963      10.26087445
Ni      13.76812409       6.75362482      13.76812409
Ni      13.76812409      10.26087445       6.75362482
Ni      13.76812409      12.01449927       8.50724963
Ni      15.52174890      10.26087445       8.50724963
Ni      13.76812409      10.26087445      10.26087445
Ni      13.76812409      12.01449927      12.01449927
Ni      15.52174890      10.26087445      12.01449927
Ni      15.52174890      12.01449927      10.26087445
Ni      13.76812409      10.26087445      13.76812409
Ni      13.76812409      13.76812409       6.75362482
Ni      13.76812409      13.76812409      10.26087445
Ni      13.76812409      13.76812409      13.76812409
