87
Lattice="17.539982668964456 0.0 0.0 0.0 17.539982668964456 0.0 0.0 0.0 17.539982668964456" Properties=species:S:1:pos:R:3 pbc="F F F"
Pt       3.00000000       6.84666089       8.76999133
Pt       3.00000000       8.76999133       6.84666089
Pt       3.00000000       8.76999133      10.69332178
Pt       3.00000000      10.69332178       8.76999133
Pt       6.84666089       3.00000000       8.76999133
Pt       4.92333044       4.92333044       4.92333044
Pt       4.92333044       6.84666089       6.84666089
Pt       6.84666089       4.92333044       6.84666089
Pt       6.84666089       6.84666089       4.92333044
Pt       4.92333044       4.92333044       8.76999133
Pt       4.92333044       6.84666089      10.69332178
Pt       6.84666089       4.92333044      10.69332178
Pt       6.84666089       6.84666089       8.76999133
Pt       4.92333044       4.92333044      12.61665222
Pt       6.84666089       6.84666089      12.61665222
Pt       6.84666089       8.76999133       3.00000000
Pt       4.92333044       8.76999133       4.92333044
Pt       4.92333044      10.69332178       6.84666089
Pt       6.84666089       8.76999133       6.84666089
Pt       6.84666089      10.69332178       4.92333044
Pt       4.92333044       8.76999133       8.76999133
Pt       4.92333044      10.69332178      10.69332178
Pt       6.84666089       8.76999133      10.69332178
Pt       6.84666089      10.69332178       8.76999133
Pt       4.92333044       8.76999133      12.61665222
Pt       6.84666089       8.76999133      14.53998267
Pt       6.84666089      10.69332178      12.61665222
Pt       4.92333044      12.61665222       4.92333044
Pt       6.84666089      12.61665222       6.84666089
Pt       4.92333044      12.61665222       8.76999133
Pt       6.84666089      12.61665222      10.69332178
Pt       6.84666089      14.53998267       8.76999133
Pt       4.92333044      12.61665222      12.61665222
Pt       8.76999133       3.00000000       6.84666089
Pt       8.76999133       3.00000000      10.69332178
Pt      10.69332178       3.00000000       8.76999133
Pt       8.76999133       6.84666089       3.00000000
Pt       8.76999133       4.92333044       4.92333044
Pt       8.76999133       6.84666089       6.84666089
Pt      10.69332178       4.92333044       6.84666089
Pt      10.69332178       6.84666089       4.92333044
Pt       8.76999133       4.92333044       8.76999133
Pt       8.76999133       6.84666089      10.69332178
Pt      10.69332178       4.92333044      10.69332178
Pt      10.69332178       6.84666089       8.76999133
Pt       8.76999133       4.92333044      12.61665222
Pt       8.76999133       6.84666089      14.53998267
Pt      10.69332178       6.84666089      12.61665222
Pt       8.76999133      10.69332178       3.00000000
Pt      10.69332178       8.76999133       3.00000000
Pt       8.76999133       8.76999133       4.92333044
Pt       8.76999133      10.69332178       6.84666089
Pt      10.69332178       8.76999133       6.84666089
Pt      10.69332178      10.69332178       4.92333044
Pt       8.76999133       8.76999133       8.76999133
Pt       8.76999133      10.69332178      10.69332178
Pt      10.69332178       8.76999133      10.69332178
Pt      10.69332178      10.69332178       8.76999133
Pt       8.76999133       8.76999133      12.61665222
Pt       8.76999133      10.69332178      14.53998267
Pt      10.69332178       8.76999133      14.53998267
Pt      10.69332178      10.69332178      12.61665222
Pt       8.76999133      12.61665222       4.92333044
Pt       8.76999133      14.53998267       6.84666089
Pt      10.69332178      12.61665222       6.84666089
Pt       8.76999133      12.61665222       8.76999133
Pt       8.76999133      14.53998267      10.69332178
Pt      10.69332178      12.61665222      10.69332178
Pt      10.69332178      14.53998267       8.76999133
Pt       8.76999133      12.61665222      12.61665222
Pt      12.61665222       4.92333044       4.92333044
Pt      12.61665222       6.84666089       6.84666089
Pt      12.61665222       4.92333044       8.76999133
Pt      12.61665222       6.84666089      10.69332178
Pt      14.53998267       6.84666089       8.76999133
Pt      12.61665222       4.92333044      12.61665222
Pt      12.61665222       8.76999133       4.92333044
Pt      12.61665222      10.69332178       6.84666089
Pt      14.53998267       8.76999133       6.84666089
Pt      12.61665222       8.76999133       8.76999133
Pt      12.61665222      10.69332178      10.69332178
Pt      14.53998267       8.76999133      10.69332178
Pt      14.53998267      10.69332178       8.76999133
Pt      12.61665222       8.76999133      12.61665222
Pt      12.61665222      12.61665222       4.92333044
Pt      12.61665222      12.61665222       8.76999133
Pt      12.61665222      12.61665222      12.61665222
