87
Lattice="21.539982668964456 0.0 0.0 0.0 21.539982668964456 0.0 0.0 0.0 21.539982668964456" Properties=species:S:1:pos:R:3 pbc="F F F"
Pt       5.00000000       8.84666089      10.76999133
Pt       5.00000000      10.76999133       8.84666089
Pt       5.00000000      10.76999133      12.69332178
Pt       5.00000000      12.69332178      10.76999133
Pt       8.84666089       5.00000000      10.76999133
Pt       6.92333044       6.92333044       6.92333044
Pt       6.92333044       8.84666089       8.84666089
Pt       8.84666089       6.92333044       8.84666089
Pt       8.84666089       8.84666089       6.92333044
Pt       6.92333044       6.92333044      10.76999133
Pt       6.92333044       8.84666089      12.69332178
Pt       8.84666089       6.92333044      12.69332178
Pt       8.84666089       8.84666089      10.76999133
Pt       6.92333044       6.92333044      14.61665222
Pt       8.84666089       8.84666089      14.61665222
Pt       8.84666089      10.76999133       5.00000000
Pt       6.92333044      10.76999133       6.92333044
Pt       6.92333044      12.69332178       8.84666089
Pt       8.84666089      10.76999133       8.84666089
Pt       8.84666089      12.69332178       6.92333044
Pt       6.92333044      10.76999133      10.76999133
Pt       6.92333044      12.69332178      12.69332178
Pt       8.84666089      10.76999133      12.69332178
Pt       8.84666089      12.69332178      10.76999133
Pt       6.92333044      10.76999133      14.61665222
Pt       8.84666089      10.76999133      16.53998267
Pt       8.84666089      12.69332178      14.61665222
Pt       6.92333044      14.61665222       6.92333044
Pt       8.84666089      14.61665222       8.84666089
Pt       6.92333044      14.61665222      10.76999133
Pt       8.84666089      14.61665222      12.69332178
Pt       8.84666089      16.53998267      10.76999133
Pt       6.92333044      14.61665222      14.61665222
Pt      10.76999133       5.00000000       8.84666089
Pt      10.76999133       5.00000000      12.69332178
Pt      12.69332178       5.00000000      10.76999133
Pt      10.76999133       8.84666089       5.00000000
Pt      10.76999133       6.92333044       6.92333044
Pt      10.76999133       8.84666089       8.84666089
Pt      12.69332178       6.92333044       8.84666089
Pt      12.69332178       8.84666089       6.92333044
Pt      10.76999133       6.92333044      10.76999133
Pt      10.76999133       8.84666089      12.69332178
Pt      12.69332178       6.92333044      12.69332178
Pt      12.69332178       8.84666089      10.76999133
Pt      10.76999133       6.92333044      14.61665222
Pt      10.76999133       8.84666089      16.53998267
Pt      12.69332178       8.84666089      14.61665222
Pt      10.76999133      12.69332178       5.00000000
Pt      12.69332178      10.76999133       5.00000000
Pt      10.76999133      10.76999133       6.92333044
Pt      10.76999133      12.69332178       8.84666089
Pt      12.69332178      10.76999133       8.84666089
Pt      12.69332178      12.69332178       6.92333044
Pt      10.76999133      10.76999133      10.76999133
Pt      10.76999133      12.69332178      12.69332178
Pt      12.69332178      10.76999133      12.69332178
Pt      12.69332178      12.69332178      10.76999133
Pt      10.76999133      10.76999133      14.61665222
Pt      10.76999133      12.69332178      16.53998267
Pt      12.69332178      10.76999133      16.53998267
Pt      12.69332178      12.69332178      14.61665222
Pt      10.76999133      14.61665222       6.92333044
Pt      10.76999133      16.53998267       8.84666089
Pt      12.69332178      14.61665222       8.84666089
Pt      10.76999133      14.61665222      10.76999133
Pt      10.76999133      16.53998267      12.69332178
Pt      12.69332178      14.61665222      12.69332178
Pt      12.69332178      16.53998267      10.76999133
Pt      10.76999133      14.61665222      14.61665222
Pt      14.61665222       6.92333044       6.92333044
Pt      14.61665222       8.84666089       8.84666089
Pt      14.61665222       6.92333044      10.76999133
Pt      14.61665222       8.84666089      12.69332178
Pt      16.53998267       8.84666089      10.76999133
Pt      14.61665222       6.92333044      14.61665222
Pt      14.61665222      10.76999133       6.92333044
Pt      14.61665222      12.69332178       8.84666089
Pt      16.53998267      10.76999133       8.84666089
Pt      14.61665222      10.76999133      10.76999133
Pt      14.61665222      12.69332178      12.69332178
Pt      16.53998267      10.76999133      12.69332178
Pt      16.53998267      12.69332178      10.76999133
Pt      14.61665222      10.76999133      14.61665222
Pt      14.61665222      14.61665222       6.92333044
Pt      14.61665222      14.61665222      10.76999133
Pt      14.61665222      14.61665222      14.61665222
